unsat
(define-fun InvF ((x Int) (n Int)) Bool (or (not (>= (+ x (* (- 1) n)) 0)) (= x n) (not (>= n 0))))
0.00user 0.01system 0:00.01elapsed 84%CPU (0avgtext+0avgdata 24736maxresident)k
8inputs+8outputs (0major+920minor)pagefaults 0swaps
